Generated using phonoLAMMPS
1.0
        9.0460453033         0.0000000000         0.0000000000
        0.0000000000        10.0249137878         0.0000000000
       -4.4300078664         0.0000000000         8.0997958056
Zn N O C H 
4 12 8 12 8
Direct
0.174202251112634   0.052527986656787   0.438377243800898
0.825797379096442   0.552527940964624   0.061609390459076
0.825796981056942   0.947472039406679   0.561609736757930
0.174202770800497   0.447471989390189   0.938376881095211
0.030415313978893   0.887066917277156   0.367490298029002
0.969584732587497   0.387066885554688   0.132496353810428
0.969584672582406   0.112933217621461   0.632496067975321
0.030415428797446   0.612933120598981   0.867490367330872
0.903682265851175   0.856359346867061   0.403304359788736
0.096317891524521   0.356359467250540   0.096682393930422
0.096317677529997   0.143640701430611   0.596682041998958
0.903682340569880   0.643640457990513   0.903304335805663
0.901816352169836   0.705480880624516   0.226302304874860
0.098183582760978   0.205480724231451   0.273683954605790
0.098183776304843   0.294519063781290   0.773684063874347
0.901816256734199   0.794518968973392   0.726302385415779
0.416068529646941   0.070645916470013   0.620915487394370
0.583931600784468   0.570645904843878   0.879070586769509
0.583931470635475   0.929354044585213   0.379070575486755
0.416068511881060   0.429354049218071   0.120915394914632
0.686157985809499   0.032725960961306   0.685077935394070
0.313842093100604   0.532726081559151   0.814908162888935
0.313842142198949   0.967274151124845   0.314908351633940
0.686157873282912   0.467274171147361   0.185077964990496
0.025715653393082   0.795295012965259   0.260830816905699
0.974284313260872   0.295294831185042   0.239155617728132
0.974284504837855   0.204705072202656   0.739155620026338
0.025715641472616   0.704705006822942   0.760830869087755
0.829607454255473   0.747189947734385   0.317271243031124
0.170392596428940   0.247189952272180   0.182715232654852
0.170392601579054   0.252810075109901   0.682715069789265
0.829607390713239   0.752809840225687   0.817271279652295
0.529858686760290   0.029774480298898   0.587919195397081
0.470141286210551   0.529774541421917   0.912066826792526
0.470141140583747   0.970225527459174   0.412066725367500
0.529858746920640   0.470225575532505   0.087919304921323
0.111691838249108   0.795559364066834   0.209966120429751
0.888308113260067   0.295558865357906   0.290020338421110
0.888308486558090   0.204440839424492   0.790020409748711
0.111691673087963   0.704440916313932   0.709966033992387
0.724327345169780   0.698067109957636   0.320137809271961
0.275672674304217   0.198067134793660   0.179848617582538
0.275672739668394   0.301933019592805   0.679848530061319
0.724327221487923   0.801932816732607   0.820137727112359
