CALF-20_PBE_D3_2x2x2_supercell
1.0
       18.0920906067         0.0000000000         0.0000000000
        0.0000000000        20.0498275757         0.0000000000
       -8.8600193937         0.0000000000        16.1995983049
   Zn    N    O    C    H
   32   96   64   96   64
Direct
     0.086959355         0.026261305         0.219061360
     0.086959355         0.026261305         0.719061375
     0.086959355         0.526261330         0.219061360
     0.086959355         0.526261330         0.719061375
     0.586959362         0.026261305         0.219061360
     0.586959362         0.026261305         0.719061375
     0.586959362         0.526261330         0.219061360
     0.586959362         0.526261330         0.719061375
     0.413039923         0.276256889         0.030931016
     0.413039923         0.276256889         0.530930996
     0.413039923         0.776256919         0.030931016
     0.413039923         0.776256919         0.530930996
     0.913039923         0.276256889         0.030931016
     0.913039923         0.276256889         0.530930996
     0.913039923         0.776256919         0.030931016
     0.913039923         0.776256919         0.530930996
     0.413036644         0.473740548         0.280931145
     0.413036644         0.473740548         0.780931115
     0.413036644         0.973740578         0.280931145
     0.413036644         0.973740578         0.780931115
     0.913036644         0.473740548         0.280931145
     0.913036644         0.473740548         0.780931115
     0.913036644         0.973740578         0.280931145
     0.913036644         0.973740578         0.780931115
     0.086960480         0.223740771         0.469061345
     0.086960480         0.223740771         0.969061375
     0.086960480         0.723740757         0.469061345
     0.086960480         0.723740757         0.969061375
     0.586960495         0.223740771         0.469061345
     0.586960495         0.223740771         0.969061375
     0.586960495         0.723740757         0.469061345
     0.586960495         0.723740757         0.969061375
     0.015247318         0.443512708         0.183792084
     0.015247318         0.443512708         0.683792114
     0.015247318         0.943512678         0.183792084
     0.015247318         0.943512678         0.683792114
     0.515247345         0.443512708         0.183792084
     0.515247345         0.443512708         0.683792114
     0.515247345         0.943512678         0.183792084
     0.515247345         0.943512678         0.683792114
     0.484750986         0.193509549         0.066197991
     0.484750986         0.193509549         0.566197991
     0.484750986         0.693509579         0.066197991
     0.484750986         0.693509579         0.566197991
     0.984750986         0.193509549         0.066197991
     0.984750986         0.193509549         0.566197991
     0.984750986         0.693509579         0.066197991
     0.984750986         0.693509579         0.566197991
     0.484750718         0.056488909         0.316200525
     0.484750718         0.056488909         0.816200495
     0.484750718         0.556488931         0.316200525
     0.484750718         0.556488931         0.816200495
     0.984750748         0.056488909         0.316200525
     0.984750748         0.056488909         0.816200495
     0.984750748         0.556488931         0.316200525
     0.984750748         0.556488931         0.816200495
     0.015253441         0.306491643         0.433799237
     0.015253441         0.306491643         0.933799267
     0.015253441         0.806491613         0.433799237
     0.015253441         0.806491613         0.933799267
     0.515253425         0.306491643         0.433799237
     0.515253425         0.306491643         0.933799267
     0.515253425         0.806491613         0.433799237
     0.515253425         0.806491613         0.933799267
     0.452601224         0.427685052         0.202550799
     0.452601224         0.427685052         0.702550769
     0.452601224         0.927685022         0.202550799
     0.452601224         0.927685022         0.702550769
     0.952601194         0.427685052         0.202550799
     0.952601194         0.427685052         0.702550769
     0.952601194         0.927685022         0.202550799
     0.952601194         0.927685022         0.702550769
     0.047395997         0.177681461         0.047439158
     0.047395997         0.177681461         0.547439158
     0.047395997         0.677681446         0.047439158
     0.047395997         0.677681446         0.547439158
     0.547396004         0.177681461         0.047439158
     0.547396004         0.177681461         0.547439158
     0.547396004         0.677681446         0.047439158
     0.547396004         0.677681446         0.547439158
     0.047395721         0.072316393         0.297442049
     0.047395721         0.072316393         0.797442079
     0.047395721         0.572316408         0.297442049
     0.047395721         0.572316408         0.797442079
     0.547395706         0.072316393         0.297442049
     0.547395706         0.072316393         0.797442079
     0.547395706         0.572316408         0.297442049
     0.547395706         0.572316408         0.797442079
     0.452608049         0.322317481         0.452557951
     0.452608049         0.322317481         0.952557921
     0.452608049         0.822317481         0.452557951
     0.452608049         0.822317481         0.952557921
     0.952608049         0.322317481         0.452557951
     0.952608049         0.322317481         0.952557921
     0.952608049         0.822317481         0.452557951
     0.952608049         0.822317481         0.952557921
     0.451192230         0.352537662         0.113540873
     0.451192230         0.352537662         0.613540888
     0.451192230         0.852537632         0.113540873
     0.451192230         0.852537632         0.613540888
     0.951192260         0.352537662         0.113540873
     0.951192260         0.352537662         0.613540888
     0.951192260         0.852537632         0.113540873
     0.951192260         0.852537632         0.613540888
     0.048810359         0.102539696         0.136456624
     0.048810359         0.102539696         0.636456609
     0.048810359         0.602539718         0.136456624
     0.048810359         0.602539718         0.636456609
     0.548810363         0.102539696         0.136456624
     0.548810363         0.102539696         0.636456609
     0.548810363         0.602539718         0.136456624
     0.548810363         0.602539718         0.636456609
     0.048808351         0.147461429         0.386456668
     0.048808351         0.147461429         0.886456668
     0.048808351         0.647461414         0.386456668
     0.048808351         0.647461414         0.886456668
     0.548808336         0.147461429         0.386456668
     0.548808336         0.147461429         0.886456668
     0.548808336         0.647461414         0.386456668
     0.548808336         0.647461414         0.886456668
     0.451187253         0.397458225         0.363535583
     0.451187253         0.397458225         0.863535583
     0.451187253         0.897458196         0.363535583
     0.451187253         0.897458196         0.863535583
     0.951187253         0.397458225         0.363535583
     0.951187253         0.397458225         0.863535583
     0.951187253         0.897458196         0.363535583
     0.951187253         0.897458196         0.863535583
     0.207729340         0.034673143         0.310552359
     0.207729340         0.034673143         0.810552359
     0.207729340         0.534673154         0.310552359
     0.207729340         0.534673154         0.810552359
     0.707729340         0.034673143         0.310552359
     0.707729340         0.034673143         0.810552359
     0.707729340         0.534673154         0.310552359
     0.707729340         0.534673154         0.810552359
     0.292273074         0.284669191         0.439436108
     0.292273074         0.284669191         0.939436078
     0.292273074         0.784669161         0.439436108
     0.292273074         0.784669161         0.939436078
     0.792273045         0.284669191         0.439436108
     0.792273045         0.284669191         0.939436078
     0.792273045         0.784669161         0.439436108
     0.792273045         0.784669161         0.939436078
     0.292268038         0.465333045         0.189436287
     0.292268038         0.465333045         0.689436316
     0.292268038         0.965333045         0.189436287
     0.292268038         0.965333045         0.689436316
     0.792268038         0.465333045         0.189436287
     0.792268038         0.465333045         0.689436316
     0.792268038         0.965333045         0.189436287
     0.792268038         0.965333045         0.689436316
     0.207730919         0.215328798         0.060549941
     0.207730919         0.215328798         0.560549915
     0.207730919         0.715328813         0.060549941
     0.207730919         0.715328813         0.560549915
     0.707730889         0.215328798         0.060549941
     0.707730889         0.215328798         0.560549915
     0.707730889         0.715328813         0.060549941
     0.707730889         0.715328813         0.560549915
     0.342903316         0.016131910         0.342824012
     0.342903316         0.016131910         0.842823982
     0.342903316         0.516131938         0.342824012
     0.342903316         0.516131938         0.842823982
     0.842903316         0.016131910         0.342824012
     0.842903316         0.016131910         0.842823982
     0.842903316         0.516131938         0.342824012
     0.842903316         0.516131938         0.842823982
     0.157096639         0.266136527         0.407167137
     0.157096639         0.266136527         0.907167137
     0.157096639         0.766136527         0.407167137
     0.157096639         0.766136527         0.907167137
     0.657096624         0.266136527         0.407167137
     0.657096624         0.266136527         0.907167137
     0.657096624         0.766136527         0.407167137
     0.657096624         0.766136527         0.907167137
     0.157093927         0.483868212         0.157169148
     0.157093927         0.483868212         0.657169163
     0.157093927         0.983868241         0.157169148
     0.157093927         0.983868241         0.657169163
     0.657093942         0.483868212         0.157169148
     0.657093942         0.483868212         0.657169163
     0.657093942         0.983868241         0.157169148
     0.657093942         0.983868241         0.657169163
     0.342906535         0.233866006         0.092821307
     0.342906535         0.233866006         0.592821300
     0.342906535         0.733865976         0.092821307
     0.342906535         0.733865976         0.592821300
     0.842906535         0.233866006         0.092821307
     0.842906535         0.233866006         0.592821300
     0.842906535         0.733865976         0.092821307
     0.842906535         0.733865976         0.592821300
     0.012643105         0.397798628         0.130192399
     0.012643105         0.397798628         0.630192399
     0.012643105         0.897798657         0.130192399
     0.012643105         0.897798657         0.630192399
     0.512643099         0.397798628         0.130192399
     0.512643099         0.397798628         0.630192399
     0.512643099         0.897798657         0.130192399
     0.512643099         0.897798657         0.630192399
     0.487358481         0.147798687         0.119802937
     0.487358481         0.147798687         0.619802952
     0.487358481         0.647798657         0.119802937
     0.487358481         0.647798657         0.619802952
     0.987358451         0.147798687         0.119802937
     0.987358451         0.147798687         0.619802952
     0.987358451         0.647798657         0.119802937
     0.987358451         0.647798657         0.619802952
     0.487356275         0.102201119         0.369803309
     0.487356275         0.102201119         0.869803309
     0.487356275         0.602201104         0.369803309
     0.487356275         0.602201104         0.869803309
     0.987356305         0.102201119         0.369803309
     0.987356305         0.102201119         0.869803309
     0.987356305         0.602201104         0.369803309
     0.987356305         0.602201104         0.869803309
     0.012642260         0.352201790         0.380191922
     0.012642260         0.352201790         0.880191922
     0.012642260         0.852201819         0.380191922
     0.012642260         0.852201819         0.880191922
     0.512642264         0.352201790         0.380191922
     0.512642264         0.352201790         0.880191922
     0.512642264         0.852201819         0.380191922
     0.512642264         0.852201819         0.880191922
     0.415724099         0.372991502         0.159742221
     0.415724099         0.372991502         0.659742236
     0.415724099         0.872991502         0.159742221
     0.415724099         0.872991502         0.659742236
     0.915724099         0.372991502         0.159742221
     0.915724099         0.372991502         0.659742236
     0.915724099         0.872991502         0.159742221
     0.915724099         0.872991502         0.659742236
     0.084276460         0.122990832         0.090252608
     0.084276460         0.122990832         0.590252638
     0.084276460         0.622990847         0.090252608
     0.084276460         0.622990847         0.590252638
     0.584276438         0.122990832         0.090252608
     0.584276438         0.122990832         0.590252638
     0.584276438         0.622990847         0.090252608
     0.584276438         0.622990847         0.590252638
     0.084275812         0.127008408         0.340253800
     0.084275812         0.127008408         0.840253830
     0.084275812         0.627008438         0.340253800
     0.084275812         0.627008438         0.840253830
     0.584275842         0.127008408         0.340253800
     0.584275842         0.127008408         0.840253830
     0.584275842         0.627008438         0.340253800
     0.584275842         0.627008438         0.840253830
     0.415723383         0.377006054         0.409741789
     0.415723383         0.377006054         0.909741759
     0.415723383         0.877006054         0.409741789
     0.415723383         0.877006054         0.909741759
     0.915723383         0.377006054         0.409741789
     0.915723383         0.377006054         0.909741759
     0.915723383         0.877006054         0.409741789
     0.915723383         0.877006054         0.909741759
     0.264798373         0.014631876         0.294058144
     0.264798373         0.014631876         0.794058144
     0.264798373         0.514631867         0.294058144
     0.264798373         0.514631867         0.794058144
     0.764798403         0.014631876         0.294058144
     0.764798403         0.014631876         0.794058144
     0.764798403         0.514631867         0.294058144
     0.764798403         0.514631867         0.794058144
     0.235204086         0.264631152         0.455932051
     0.235204086         0.264631152         0.955932021
     0.235204086         0.764631152         0.455932051
     0.235204086         0.764631152         0.955932021
     0.735204101         0.264631152         0.455932051
     0.735204101         0.264631152         0.955932021
     0.735204101         0.764631152         0.455932051
     0.735204101         0.764631152         0.955932021
     0.235199988         0.485371590         0.205932379
     0.235199988         0.485371590         0.705932379
     0.235199988         0.985371590         0.205932379
     0.235199988         0.985371590         0.705932379
     0.735199988         0.485371590         0.205932379
     0.735199988         0.485371590         0.705932379
     0.735199988         0.985371590         0.205932379
     0.735199988         0.985371590         0.705932379
     0.264798999         0.235369265         0.044054292
     0.264798999         0.235369265         0.544054270
     0.264798999         0.735369265         0.044054292
     0.264798999         0.735369265         0.544054270
     0.764798999         0.235369265         0.044054292
     0.764798999         0.235369265         0.544054270
     0.764798999         0.735369265         0.044054292
     0.764798999         0.735369265         0.544054270
     0.055136479         0.398332000         0.104179703
     0.055136479         0.398332000         0.604179680
     0.055136479         0.898332000         0.104179703
     0.055136479         0.898332000         0.604179680
     0.555136502         0.398332000         0.104179703
     0.555136502         0.398332000         0.604179680
     0.555136502         0.898332000         0.104179703
     0.555136502         0.898332000         0.604179680
     0.444865406         0.148335963         0.145816848
     0.444865406         0.148335963         0.645816863
     0.444865406         0.648335934         0.145816848
     0.444865406         0.648335934         0.645816863
     0.944865406         0.148335963         0.145816848
     0.944865406         0.148335963         0.645816863
     0.944865406         0.648335934         0.145816848
     0.944865406         0.648335934         0.645816863
     0.444863141         0.101664677         0.395816803
     0.444863141         0.101664677         0.895816803
     0.444863141         0.601664662         0.395816803
     0.444863141         0.601664662         0.895816803
     0.944863141         0.101664677         0.395816803
     0.944863141         0.101664677         0.895816803
     0.944863141         0.601664662         0.395816803
     0.944863141         0.601664662         0.895816803
     0.055134945         0.351665735         0.354177624
     0.055134945         0.351665735         0.854177594
     0.055134945         0.851665735         0.354177624
     0.055134945         0.851665735         0.854177594
     0.555134952         0.351665735         0.354177624
     0.555134952         0.351665735         0.854177594
     0.555134952         0.851665735         0.354177624
     0.555134952         0.851665735         0.854177594
     0.363662690         0.348035544         0.161859930
     0.363662690         0.348035544         0.661859930
     0.363662690         0.848035574         0.161859930
     0.363662690         0.848035574         0.661859930
     0.863662720         0.348035544         0.161859930
     0.863662720         0.348035544         0.661859930
     0.863662720         0.848035574         0.161859930
     0.863662720         0.848035574         0.661859930
     0.136338308         0.098035157         0.088136002
     0.136338308         0.098035157         0.588136017
     0.136338308         0.598035157         0.088136002
     0.136338308         0.598035157         0.588136017
     0.636338294         0.098035157         0.088136002
     0.636338294         0.098035157         0.588136017
     0.636338294         0.598035157         0.088136002
     0.636338294         0.598035157         0.588136017
     0.136338279         0.151964158         0.338136822
     0.136338279         0.151964158         0.838136792
     0.136338279         0.651964188         0.338136822
     0.136338279         0.651964188         0.838136792
     0.636338294         0.151964158         0.338136822
     0.636338294         0.151964158         0.838136792
     0.636338294         0.651964188         0.338136822
     0.636338294         0.651964188         0.838136792
     0.363659590         0.401959270         0.411857724
     0.363659590         0.401959270         0.911857724
     0.363659590         0.901959300         0.411857724
     0.363659590         0.901959300         0.911857724
     0.863659620         0.401959270         0.411857724
     0.863659620         0.401959270         0.911857724
     0.863659620         0.901959300         0.411857724
     0.863659620         0.901959300         0.911857724
